(set-info :smt-lib-version 2.6)
(set-logic QF_FP)
(set-info :source |
Generated by: Chenqi Cui
Generated on: 2025-12-05
Generator: AutoSMTGen
Application: Generating SMT constraints with small solution spaces to make them challenging for SMT solvers
Target solver: Z3, CVC5, Bitwuzla
|)
(set-info :license "https://creativecommons.org/licenses/by/4.0/")
(set-info :category "industrial")
(set-info :status unsat)
; benchmark generated from python API

(declare-fun x5 () (_ FloatingPoint 11 53))
(declare-fun x4 () (_ FloatingPoint 11 53))
(declare-fun x3 () (_ FloatingPoint 11 53))
(declare-fun x2 () (_ FloatingPoint 11 53))
(declare-fun x1 () (_ FloatingPoint 11 53))
(declare-fun x0 () (_ FloatingPoint 11 53))
(assert
 (let ((?x16 (fp.add roundNearestTiesToEven (fp.mul roundNearestTiesToEven (fp #b0 #b10000000111 #x01db626173842) x0) (fp.mul roundNearestTiesToEven (fp #b1 #b10000000110 #x16f0dfc15b1b1) x1))))
 (let ((?x19 (fp.add roundNearestTiesToEven ?x16 (fp.mul roundNearestTiesToEven (fp #b0 #b10000000101 #x6b42d2d4696d9) x2))))
 (let ((?x22 (fp.add roundNearestTiesToEven ?x19 (fp.mul roundNearestTiesToEven (fp #b1 #b10000000101 #x5ed0c0787bfae) x3))))
 (let ((?x25 (fp.add roundNearestTiesToEven ?x22 (fp.mul roundNearestTiesToEven (fp #b1 #b10000000110 #x6a88a545e0c7c) x4))))
 (let ((?x28 (fp.add roundNearestTiesToEven ?x25 (fp.mul roundNearestTiesToEven (fp #b1 #b10000000110 #xef72d53a77d34) x5))))
 (fp.leq ?x28 (fp #b0 #b10000000101 #x389a3a7934ef2))))))))
(assert
 (let ((?x52 (fp.add roundNearestTiesToEven (fp.mul roundNearestTiesToEven (fp #b0 #b10000000100 #x2580ac86fa68c) x0) (fp.mul roundNearestTiesToEven (fp #b1 #b10000000110 #xb58044e9cb4d8) x1))))
 (let ((?x55 (fp.add roundNearestTiesToEven ?x52 (fp.mul roundNearestTiesToEven (fp #b0 #b10000000011 #xa16f62583cf1b) x2))))
 (let ((?x58 (fp.add roundNearestTiesToEven ?x55 (fp.mul roundNearestTiesToEven (fp #b1 #b10000000101 #x3e5aa46a97eb6) x3))))
 (let ((?x61 (fp.add roundNearestTiesToEven ?x58 (fp.mul roundNearestTiesToEven (fp #b0 #b01111111111 #xc930aa9a11b50) x4))))
 (let ((?x64 (fp.add roundNearestTiesToEven ?x61 (fp.mul roundNearestTiesToEven (fp #b0 #b10000000010 #xe1c41ff97a9ae) x5))))
 (fp.leq ?x64 (fp #b0 #b10000000100 #x7ffa1e4fe7414))))))))
(assert
 (let ((?x71 (fp.add roundNearestTiesToEven (fp.mul roundNearestTiesToEven (fp #b1 #b10000000110 #x3d31c0c499f3e) x0) (fp.mul roundNearestTiesToEven (fp #b0 #b10000000101 #x248fb38aefecf) x1))))
 (let ((?x74 (fp.add roundNearestTiesToEven ?x71 (fp.mul roundNearestTiesToEven (fp #b0 #b10000000001 #x5d364295f7538) x2))))
 (let ((?x77 (fp.add roundNearestTiesToEven ?x74 (fp.mul roundNearestTiesToEven (fp #b0 #b10000000110 #x41bf0185f3ece) x3))))
 (let ((?x80 (fp.add roundNearestTiesToEven ?x77 (fp.mul roundNearestTiesToEven (fp #b1 #b10000000010 #x2e2c819f3f907) x4))))
 (let ((?x83 (fp.add roundNearestTiesToEven ?x80 (fp.mul roundNearestTiesToEven (fp #b1 #b10000000101 #x8014363285182) x5))))
 (fp.leq ?x83 (fp #b0 #b10000000101 #x48cc39416ec96))))))))
(assert
 (let ((?x90 (fp.add roundNearestTiesToEven (fp.mul roundNearestTiesToEven (fp #b0 #b10000000100 #x29f1ef43e85d2) x0) (fp.mul roundNearestTiesToEven (fp #b1 #b10000000101 #x9d4bcbaccc135) x1))))
 (let ((?x93 (fp.add roundNearestTiesToEven ?x90 (fp.mul roundNearestTiesToEven (fp #b0 #b10000000011 #xe34e5fc5587ad) x2))))
 (let ((?x96 (fp.add roundNearestTiesToEven ?x93 (fp.mul roundNearestTiesToEven (fp #b1 #b10000000011 #x08d81171bba60) x3))))
 (let ((?x99 (fp.add roundNearestTiesToEven ?x96 (fp.mul roundNearestTiesToEven (fp #b1 #b10000000110 #xa1eb2bfd9e374) x4))))
 (let ((?x102 (fp.add roundNearestTiesToEven ?x99 (fp.mul roundNearestTiesToEven (fp #b0 #b10000000101 #x99dfc6eb5d44d) x5))))
 (fp.leq ?x102 (fp #b1 #b10000000100 #xe08eeaf28db45))))))))
(assert
 (let ((?x109 (fp.add roundNearestTiesToEven (fp.mul roundNearestTiesToEven (fp #b0 #b10000000101 #x40e7cf26f604e) x0) (fp.mul roundNearestTiesToEven (fp #b0 #b10000000101 #x3f675bdab6c06) x1))))
 (let ((?x112 (fp.add roundNearestTiesToEven ?x109 (fp.mul roundNearestTiesToEven (fp #b1 #b10000000101 #xcfb3d0d6f472d) x2))))
 (let ((?x115 (fp.add roundNearestTiesToEven ?x112 (fp.mul roundNearestTiesToEven (fp #b1 #b10000000101 #x33b66fd8204f5) x3))))
 (let ((?x118 (fp.add roundNearestTiesToEven ?x115 (fp.mul roundNearestTiesToEven (fp #b1 #b10000000011 #x4ad28dfbfd08d) x4))))
 (let ((?x121 (fp.add roundNearestTiesToEven ?x118 (fp.mul roundNearestTiesToEven (fp #b1 #b10000000101 #x679631f64d682) x5))))
 (fp.leq ?x121 (fp #b1 #b10000000101 #x8d865ac184d1c))))))))
(assert
 (let ((?x128 (fp.add roundNearestTiesToEven (fp.mul roundNearestTiesToEven (fp #b0 #b10000000101 #x1b115d8d86540) x0) (fp.mul roundNearestTiesToEven (fp #b0 #b10000000101 #x474d9d99ed06a) x1))))
 (let ((?x131 (fp.add roundNearestTiesToEven ?x128 (fp.mul roundNearestTiesToEven (fp #b1 #b10000000011 #x81aeabbc1d862) x2))))
 (let ((?x134 (fp.add roundNearestTiesToEven ?x131 (fp.mul roundNearestTiesToEven (fp #b1 #b10000000101 #x4e97df948af3f) x3))))
 (let ((?x137 (fp.add roundNearestTiesToEven ?x134 (fp.mul roundNearestTiesToEven (fp #b0 #b10000000001 #x2e890b2e6a4cc) x4))))
 (let ((?x140 (fp.add roundNearestTiesToEven ?x137 (fp.mul roundNearestTiesToEven (fp #b0 #b10000000101 #xacc44ce5ce785) x5))))
 (fp.leq ?x140 (fp #b1 #b10000000101 #x57e7702b7c41f))))))))
(assert
 (let ((?x147 (fp.add roundNearestTiesToEven (fp.mul roundNearestTiesToEven (fp #b0 #b10000000110 #x4e0b571f2cbfc) x0) (fp.mul roundNearestTiesToEven (fp #b1 #b10000000110 #xa90dd6a4009bd) x1))))
 (let ((?x150 (fp.add roundNearestTiesToEven ?x147 (fp.mul roundNearestTiesToEven (fp #b0 #b10000000110 #x19bcf3211f562) x2))))
 (let ((?x153 (fp.add roundNearestTiesToEven ?x150 (fp.mul roundNearestTiesToEven (fp #b0 #b10000000111 #x0467ffdc8326d) x3))))
 (let ((?x156 (fp.add roundNearestTiesToEven ?x153 (fp.mul roundNearestTiesToEven (fp #b1 #b10000000011 #xf37f6f70895d3) x4))))
 (let ((?x159 (fp.add roundNearestTiesToEven ?x156 (fp.mul roundNearestTiesToEven (fp #b1 #b10000000100 #x0b0d107ade939) x5))))
 (fp.leq ?x159 (fp #b0 #b10000000101 #x10128e1fbe400))))))))
(assert
 (let ((?x166 (fp.add roundNearestTiesToEven (fp.mul roundNearestTiesToEven (fp #b1 #b01111111101 #x4dfaff2491430) x0) (fp.mul roundNearestTiesToEven (fp #b1 #b10000000110 #x61e7bfe8cdcea) x1))))
 (let ((?x169 (fp.add roundNearestTiesToEven ?x166 (fp.mul roundNearestTiesToEven (fp #b0 #b10000000110 #x95d2ab8dced69) x2))))
 (let ((?x172 (fp.add roundNearestTiesToEven ?x169 (fp.mul roundNearestTiesToEven (fp #b1 #b10000000011 #xd85d9d7f31a1e) x3))))
 (let ((?x175 (fp.add roundNearestTiesToEven ?x172 (fp.mul roundNearestTiesToEven (fp #b0 #b10000000101 #x3bc10431de4c5) x4))))
 (let ((?x178 (fp.add roundNearestTiesToEven ?x175 (fp.mul roundNearestTiesToEven (fp #b0 #b10000000101 #x25db0684edd35) x5))))
 (fp.leq ?x178 (fp #b1 #b10000000011 #xb59fd4c3ae038))))))))
(assert
 (fp.geq x0 (fp #b1 #b10000100000 #x2a05f20000000)))
(assert
 (fp.leq x0 (fp #b0 #b10000100000 #x2a05f20000000)))
(assert
 (fp.geq x1 (fp #b1 #b10000100000 #x2a05f20000000)))
(assert
 (fp.leq x1 (fp #b0 #b10000100000 #x2a05f20000000)))
(assert
 (fp.geq x2 (fp #b1 #b10000100000 #x2a05f20000000)))
(assert
 (fp.leq x2 (fp #b0 #b10000100000 #x2a05f20000000)))
(assert
 (fp.geq x3 (fp #b1 #b10000100000 #x2a05f20000000)))
(assert
 (fp.leq x3 (fp #b0 #b10000100000 #x2a05f20000000)))
(assert
 (fp.geq x4 (fp #b1 #b10000100000 #x2a05f20000000)))
(assert
 (fp.leq x4 (fp #b0 #b10000100000 #x2a05f20000000)))
(assert
 (fp.geq x5 (fp #b1 #b10000100000 #x2a05f20000000)))
(assert
 (fp.leq x5 (fp #b0 #b10000100000 #x2a05f20000000)))
(check-sat)
(exit)
